\ LP format - for model browsing. Use MPS format to capture full model detail.
Maximize
  6 x_1 + 8 x_2 + 7 x_3 + 5 x_4 + 4 x_5
Subject To
 C_1: 4 x_1 + 8 x_2 + 7 x_3 + 2 x_4 + 4 x_5 <= 12
 C_2: 10 x_1 + 10 x_2 + 7 x_3 + 10 x_4 + 6 x_5 <= 21
 C_3: 5 x_1 + 8 x_2 + 5 x_3 + 3 x_4 + 10 x_5 <= 15
 C_4: 9 x_1 + 10 x_2 + 4 x_3 + 7 x_4 + 10 x_5 <= 20
 C_5: 9 x_1 + 5 x_2 + 2 x_3 + 9 x_4 + x_5 <= 13
Bounds
Binaries
 x_1 x_2 x_3 x_4 x_5
End
